p wcnf 173 86 87 
1 -37 56 0 
1 -21 13 0 
1 98 149 0 
1 19 114 0 
1 141 18 0 
1 147 12 0 
1 38 163 0 
1 -102 14 0 
1 90 -98 0 
1 34 79 0 
1 141 83 0 
1 -64 124 0 
1 138 -83 0 
1 -2 -8 0 
1 -100 137 0 
1 -112 158 0 
1 -127 -80 0 
1 19 -114 0 
1 -10 94 0 
1 -10 -126 0 
1 -81 -151 0 
1 166 -90 0 
1 168 -111 0 
1 -103 146 0 
1 80 -5 0 
1 -134 12 0 
1 51 -98 0 
1 -144 37 0 
1 114 -27 0 
1 -128 -54 0 
1 -162 -164 0 
1 -62 14 0 
1 -152 -160 0 
1 -108 49 0 
1 172 51 0 
1 -130 -65 0 
1 86 17 0 
1 70 -106 0 
1 10 160 0 
1 67 14 0 
1 -18 -29 0 
1 -104 154 0 
1 91 24 0 
1 157 62 0 
1 102 -138 0 
1 28 -91 0 
1 91 -81 0 
1 -130 55 0 
1 157 -156 0 
1 -150 40 0 
1 82 -120 0 
1 -130 5 0 
1 76 -37 0 
1 108 -47 0 
1 2 -153 0 
1 -60 84 0 
1 -157 -43 0 
1 -34 -122 0 
1 -138 6 0 
1 -48 148 0 
1 116 93 0 
1 45 -72 0 
1 -152 148 0 
1 -51 166 0 
1 -112 109 0 
1 -133 -1 0 
1 16 -159 0 
1 149 134 0 
1 -88 30 0 
1 31 63 0 
1 169 69 0 
1 133 158 0 
1 -47 98 0 
1 163 125 0 
1 -172 -161 0 
1 91 -83 0 
1 -54 -70 0 
1 -84 58 0 
1 -2 69 0 
1 -78 1 0 
1 162 173 0 
1 166 -74 0 
1 -56 128 0 
1 -104 -43 0 
1 -132 8 0 
1 -77 139 0 
